<instance format="XCSP3" type="CSP">
  <variables>
    <var id="x0"> 0 10 11 </var>
    <var id="x1"> 2 6 9 10 </var>
    <var id="x2"> 0 2 9 11 </var>
    <var id="x3"> 1 6 10 11 </var>
    <var id="x4"> 0 6 10 11 </var>
    <var id="x5"> 0 2 9..11 </var>
    <var id="x6"> 0 2 9 </var>
    <var id="x7"> 1 2 6 13 14 </var>
    <var id="x8"> 1 2 14 </var>
    <var id="x9"> 1 4 14 </var>
    <var id="x10"> 1 2 6 11 13 </var>
    <var id="x11"> 2 6 11 14 </var>
    <var id="x12"> 4 6 14 </var>
    <var id="x13"> 2 4 14 </var>
    <var id="x14"> 4 11 </var>
    <var id="x15"> 2..4 6 9 </var>
    <var id="x16"> 2 3 9 11 </var>
    <var id="x17"> 3 6 11 </var>
    <var id="x18"> 2 3 6 11 </var>
    <var id="x19"> 2 6 11 </var>
    <var id="x20"> 3 4 6 8 </var>
    <var id="x21"> 2 4 10 14 </var>
    <var id="x22"> 0 2 4 14 </var>
    <var id="x23"> 0..2 10 14 </var>
    <var id="x24"> 1 4 5 10 14 </var>
    <var id="x25"> 1 5 10 </var>
    <var id="x26"> 0 4 10 </var>
    <var id="x27"> 0 2 10 </var>
    <var id="x28"> 0 3 5 11 14 </var>
    <var id="x29"> 0 7 10 14 </var>
    <var id="x30"> 4 5 7 10 14 </var>
    <var id="x31"> 3 5 7 10 11 </var>
    <var id="x32"> 0 5 11 </var>
    <var id="x33"> 0 3 4 10 11 </var>
    <var id="x34"> 0 3..5 14 </var>
    <var id="x35"> 0 3 10 11 </var>
    <var id="x36"> 0 11 </var>
    <var id="x37"> 2 3 6 9 </var>
    <var id="x38"> 2 6 </var>
    <var id="x39"> 2 5 6 11 </var>
    <var id="x40"> 0 2 5 6 11 </var>
    <var id="x41"> 0 2 3 9 11 </var>
    <var id="x42"> 0 2 3 5 9 </var>
    <var id="x43"> 0 10..12 </var>
    <var id="x44"> 0 2 8 11 </var>
    <var id="x45"> 2 6 10 </var>
    <var id="x46"> 0 2 10 12 </var>
    <var id="x47"> 8 10 </var>
    <var id="x48"> 2 6 10..12 </var>
    <var id="x49"> 0 6 10..12 </var>
    <var id="x50"> 0 4 10 14 </var>
    <var id="x51"> 0 4 9 14 </var>
    <var id="x52"> 0 3 5 9 14 </var>
    <var id="x53"> 0 3 4 10 </var>
    <var id="x54"> 0 3..5 14 </var>
    <var id="x55"> 0 3 9 10 </var>
    <var id="x56"> 0 3..5 9 14 </var>
    <var id="x57"> 8 9 11 14 </var>
    <var id="x58"> 9 11 14 </var>
    <var id="x59"> 7 10 14 </var>
    <var id="x60"> 6 7 10 11 </var>
    <var id="x61"> 6 10 11 14 </var>
    <var id="x62"> 6 8 11 </var>
    <var id="x63"> 8..11 </var>
    <var id="x64"> 2 4 10 14 </var>
    <var id="x65"> 2 4 8 11 14 </var>
    <var id="x66"> 2 7 10 14 </var>
    <var id="x67"> 4 7 8 10 14 </var>
    <var id="x68"> 2 7 11 </var>
    <var id="x69"> 2 8 11 </var>
    <var id="x70"> 4 8 14 </var>
    <var id="x71"> 0 2 </var>
    <var id="x72"> 0 2 3 5 </var>
    <var id="x73"> 0 2 7 10 12 </var>
    <var id="x74"> 5 7 10 </var>
    <var id="x75"> 3 5 7 10 </var>
    <var id="x76"> 2 3 7 </var>
    <var id="x77"> 0 2 3 5 </var>
    <var id="x78"> 4 7 11 12 14 </var>
    <var id="x79"> 4 11 14 </var>
    <var id="x80"> 1 7 13 14 </var>
    <var id="x81"> 1 7 11 </var>
    <var id="x82"> 11 13 </var>
    <var id="x83"> 11 12 </var>
    <var id="x84"> 4 14 </var>
    <var id="x85"> 10 12 14 </var>
    <var id="x86"> 2 3 10 14 </var>
    <var id="x87"> 1 2 10 14 </var>
    <var id="x88"> 1..3 </var>
    <var id="x89"> 2 5 </var>
    <var id="x90"> 3 10 12 </var>
    <var id="x91"> 3 5 14 </var>
    <var id="x92"> 0 3 5 14 </var>
    <var id="x93"> 6 13 14 </var>
    <var id="x94"> 5 14 </var>
    <var id="x95"> 3 6 13 </var>
    <var id="x96"> 5 6 12 14 </var>
    <var id="x97"> 0 3 6 12 </var>
    <var id="x98"> 0 3 5 14 </var>
    <var id="x99"> 2 3 6 14 </var>
    <var id="x100"> 2 6 7 14 </var>
    <var id="x101"> 2 3 6 7 </var>
    <var id="x102"> 2 6 14 </var>
    <var id="x103"> 0 2 6 8 </var>
    <var id="x104"> 0 3 6 8 14 </var>
    <var id="x105"> 0 2 3 8 </var>
  </variables>
  <constraints>
    <group>
      <allDifferent> %... </allDifferent>
      <args> x0 x1 x2 x3 x4 x5 x6 </args>
      <args> x7 x8 x9 x10 x11 x12 x13 </args>
      <args> x14 x15 x16 x17 x18 x19 x20 </args>
      <args> x21 x22 x23 x24 x25 x26 x27 </args>
      <args> x28 x29 x30 x31 x32 x33 x34 x35 </args>
      <args> x36 x37 x38 x39 x40 x41 x42 </args>
      <args> x43 x44 x45 x46 x47 x48 x49 </args>
      <args> x50 x51 x52 x53 x54 x55 x56 </args>
      <args> x57 x58 x59 x60 x61 x62 x63 </args>
      <args> x64 x65 x66 x67 x68 x69 x70 </args>
      <args> x71 x72 x73 x74 x75 x76 x77 </args>
      <args> x78 x79 x80 x81 x82 x83 x84 </args>
      <args> x85 x86 x87 x88 x89 x90 x91 </args>
      <args> x92 x93 x94 x95 x96 x97 x98 </args>
      <args> x99 x100 x101 x102 x103 x104 x105 </args>
      <args> x0 x14 x36 x43 x50 x78 x85 </args>
      <args> x1 x15 x21 x37 x64 x86 x99 </args>
      <args> x22 x44 x51 x57 x65 x71 x79 </args>
      <args> x2 x16 x28 x52 x58 x72 x92 </args>
      <args> x7 x38 x45 x80 x87 x93 x100 </args>
      <args> x8 x23 x29 x46 x59 x66 x73 </args>
      <args> x9 x24 x30 x47 x67 x74 x94 </args>
      <args> x3 x17 x25 x31 x60 x75 x81 </args>
      <args> x10 x18 x68 x76 x88 x95 x101 </args>
      <args> x11 x19 x39 x48 x61 x96 x102 </args>
      <args> x32 x40 x62 x69 x82 x89 x103 </args>
      <args> x4 x26 x33 x49 x53 x90 x97 </args>
      <args> x12 x20 x34 x54 x70 x91 x104 </args>
      <args> x5 x27 x35 x41 x55 x63 x83 x105 </args>
      <args> x6 x13 x42 x56 x77 x84 x98 </args>
    </group>
  </constraints>
</instance>

